1595, 0, 0, 48, 2
1596, 0, 1, 96, 0
1597, 0, 2, 37, 1
1598, 0, 3, 45, 3
1599, 1, 0, 49, 0
1600, 1, 1, 47, 1
1601, 1, 2, 48, 3
1602, 1, 3, 54, 2
1603, 2, 0, 64, 2
1604, 2, 1, 92, 0
1605, 2, 2, 95, 3
1606, 2, 3, 56, 1
1607, 3, 0, 94, 1
1608, 3, 1, 71, 3
1609, 3, 2, 53, 2
1610, 3, 3, 85, 0